40
     7    64    38    47    67    21    61     3    15    25    42    53    11    47    41    82    41     9    99    75    22    86    30    23    96     7    31    17    34    54    75    54    38    61    13    33    34    16    74    55
     4     9     8    10     7     7     4     6     6     7     1     6     3     3     4     7     1     9    10     5    10     1     9     7     8     7     6     2     3     3     8     9    10     9     6     9     3     2     5     3
   195     0    74     0   103     0     0     0    41    69   271   202   159   329    29     0   192    68     0     6    80     0     7     0   242     0     0   144   153   125     0     0     0     0     0     0     0    83     0   165
